
Gurobi 8.1.1 (win64) logging started 11/27/19 03:38:11

Changed value of parameter LogFile to logs/miss/rlt/miss-06-30-2.log
   Prev: gurobi.log  Default: 
Changed value of parameter LogToConsole to 0
   Prev: 1  Min: 0  Max: 1  Default: 1
Changed value of parameter TimeLimit to 3600.0
   Prev: 1e+100  Min: 0.0  Max: 1e+100  Default: 1e+100
Optimize a model with 104949 rows, 35245 columns and 246981 nonzeros
Variable types: 0 continuous, 35245 integer (265 binary)
Coefficient statistics:
  Matrix range     [1e+00, 1e+00]
  Objective range  [1e+00, 1e+00]
  Bounds range     [1e+00, 1e+00]
  RHS range        [1e+00, 1e+00]
Presolve time: 1.23s
Presolved: 104949 rows, 35245 columns, 246981 nonzeros
Variable types: 0 continuous, 35245 integer (35245 binary)
Found heuristic solution: objective 9.0000000
Found heuristic solution: objective 8.0000000

Root simplex log...

Iteration    Objective       Primal Inf.    Dual Inf.      Time
    3282    1.2892107e+00   5.194421e+00   0.000000e+00      5s
    4478    1.2933206e+00   0.000000e+00   0.000000e+00      7s

Root relaxation: objective 1.293321e+00, 4478 iterations, 5.60 seconds

    Nodes    |    Current Node    |     Objective Bounds      |     Work
 Expl Unexpl |  Obj  Depth IntInf | Incumbent    BestBd   Gap | It/Node Time

     0     0    1.29332    0 2306    8.00000    1.29332  83.8%     -   11s
H    0     0                       7.0000000    1.29332  81.5%     -   11s
     0     0    1.52905    0 1850    7.00000    1.52905  78.2%     -   21s
     0     0    1.53154    0 1802    7.00000    1.53154  78.1%     -   32s
     0     0    1.66095    0 1619    7.00000    1.66095  76.3%     -   35s
     0     0    1.69267    0 1753    7.00000    1.69267  75.8%     -   41s
     0     0    1.77625    0 1808    7.00000    1.77625  74.6%     -   45s
     0     0    1.79137    0 1730    7.00000    1.79137  74.4%     -   66s
     0     0    1.80726    0 1786    7.00000    1.80726  74.2%     -   71s
H    0     0                       6.0000000    1.80726  69.9%     -   83s
     0     0    1.80747    0 1814    6.00000    1.80747  69.9%     -   89s
     0     0    1.81707    0 1772    6.00000    1.81707  69.7%     -   93s
     0     0    1.81752    0 1757    6.00000    1.81752  69.7%     -  117s
     0     0    1.82386    0 1786    6.00000    1.82386  69.6%     -  122s
     0     0    1.82390    0 1802    6.00000    1.82390  69.6%     -  127s
     0     0    1.83386    0 1746    6.00000    1.83386  69.4%     -  136s
     0     0    1.83428    0 1733    6.00000    1.83428  69.4%     -  170s
     0     0    1.84211    0 1611    6.00000    1.84211  69.3%     -  179s
     0     0    1.84234    0 1609    6.00000    1.84234  69.3%     -  183s
     0     0    1.85006    0 1585    6.00000    1.85006  69.2%     -  191s
     0     0    1.85026    0 1553    6.00000    1.85026  69.2%     -  197s
     0     0    1.85640    0 1553    6.00000    1.85640  69.1%     -  206s
     0     0    1.85656    0 1608    6.00000    1.85656  69.1%     -  253s
     0     0    1.85661    0 1582    6.00000    1.85661  69.1%     -  254s
     0     0    1.86202    0 1601    6.00000    1.86202  69.0%     -  264s
     0     0    1.86223    0 1618    6.00000    1.86223  69.0%     -  269s
     0     0    1.86634    0 1469    6.00000    1.86634  68.9%     -  278s
     0     0    1.86690    0 1457    6.00000    1.86690  68.9%     -  291s
     0     0    1.87088    0 1412    6.00000    1.87088  68.8%     -  301s
     0     0    1.87119    0 1420    6.00000    1.87119  68.8%     -  353s
     0     0    1.87122    0 1439    6.00000    1.87122  68.8%     -  354s
     0     0    1.87537    0 1494    6.00000    1.87537  68.7%     -  365s
     0     0    1.87540    0 1473    6.00000    1.87540  68.7%     -  373s
     0     0    1.87856    0 1479    6.00000    1.87856  68.7%     -  384s
     0     0    1.87865    0 1491    6.00000    1.87865  68.7%     -  442s
     0     0    1.88051    0 1447    6.00000    1.88051  68.7%     -  452s
     0     0    1.88053    0 1463    6.00000    1.88053  68.7%     -  456s
     0     0    1.88216    0 1456    6.00000    1.88216  68.6%     -  466s
     0     0    1.88224    0 1446    6.00000    1.88224  68.6%     -  475s
     0     0    1.88416    0 1458    6.00000    1.88416  68.6%     -  485s
     0     0    1.88418    0 1448    6.00000    1.88418  68.6%     -  552s
     0     0    1.88617    0 1434    6.00000    1.88617  68.6%     -  563s
     0     0    1.88621    0 1470    6.00000    1.88621  68.6%     -  571s
     0     0    1.88809    0 1436    6.00000    1.88809  68.5%     -  582s
     0     0    1.88811    0 1477    6.00000    1.88811  68.5%     -  592s
     0     0    1.88944    0 1458    6.00000    1.88944  68.5%     -  602s
     0     0    1.88947    0 1461    6.00000    1.88947  68.5%     -  612s
     0     0    1.89029    0 1421    6.00000    1.89029  68.5%     -  621s
     0     0    1.89029    0 1421    6.00000    1.89029  68.5%     -  621s
     0     2    1.89029    0 1421    6.00000    1.89029  68.5%     - 1842s
     1     4    1.89557    1 1318    6.00000    1.89029  68.5%  7245 1908s
     3     6    2.00000    2  836    6.00000    1.89557  68.4% 11332 1916s
     5     8    2.00000    3  900    6.00000    1.89557  68.4%  7033 1925s
     7     8    2.00000    4  903    6.00000    1.89557  68.4%  5501 1931s
    11    12    2.00000    6  858    6.00000    1.89557  68.4%  3811 1938s
    14    15    2.00000    8  775    6.00000    1.89557  68.4%  3158 1941s
    17    18    2.00000   10  649    6.00000    1.89557  68.4%  2822 1947s
    19    20    2.00000   11  627    6.00000    1.89557  68.4%  2724 1950s
    21    22    2.00000   12  744    6.00000    1.89557  68.4%  2528 1955s
    25    26    2.00000   15  698    6.00000    1.89557  68.4%  2234 2087s
    29    30    2.00000   18  712    6.00000    1.89557  68.4%  2065 2094s
    32    33    2.00000   20  745    6.00000    1.89557  68.4%  2006 2099s
    36    37    2.00000   23  743    6.00000    1.89557  68.4%  1883 2108s
    39    40    2.00000   25  773    6.00000    1.89557  68.4%  1859 2115s
    42    43    2.00000   27  878    6.00000    1.89557  68.4%  1838 2121s
    45    46    2.00000   28  827    6.00000    1.89557  68.4%  1788 2129s
    49    50    2.00650   30  901    6.00000    1.89557  68.4%  1801 2138s
    51    52    2.01594   31  928    6.00000    1.89557  68.4%  1771 2241s
    57    58    2.06460   35  868    6.00000    1.89557  68.4%  1661 2248s
    64    65    2.19250   41  940    6.00000    1.89557  68.4%  1586 2256s
    71    72    2.36176   46  789    6.00000    1.89557  68.4%  1510 2264s
    81    82    2.73457   54  642    6.00000    1.89557  68.4%  1390 2376s
    83    84    2.82069   55  588    6.00000    1.89557  68.4%  1371 2382s
    93    92    3.63068   64  382    6.00000    1.89557  68.4%  1281 2388s
   105   102     cutoff   73         6.00000    2.00000  66.7%  1177 2440s
   110   106    2.57796    3 1987    6.00000    2.00000  66.7%  1357 2480s
   127   121    2.59251    8 1905    6.00000    2.00000  66.7%  1350 2530s
   187   180    2.60700   14 1753    6.00000    2.00000  66.7%  1112 2578s
   239   228    2.63012   21 1684    6.00000    2.00000  66.7%  1003 2613s
   260   248    2.65649   29 1599    6.00000    2.00000  66.7%  1007 2651s
   293   282    2.71249   41 1361    6.00000    2.00000  66.7%   992 2703s
   433   414    4.18165  121  674    6.00000    2.00000  66.7%   798 2744s
   490   467    2.42768    4 2157    6.00000    2.00000  66.7%   775 2772s
   506   478    2.44711   11 2037    6.00000    2.00000  66.7%   782 2801s
   526   498    2.48394   21 1939    6.00000    2.00000  66.7%   788 2835s
   551   524    2.53407   32 1749    6.00000    2.00000  66.7%   794 2880s
   634   599    2.69482   50 1327    6.00000    2.00000  66.7%   756 2948s
   757   711    2.49042   23 1421    6.00000    2.00000  66.7%   703 3020s
   759   712    2.62263   40 2306    6.00000    2.00000  66.7%   701 3039s

Cutting planes:
  MIR: 1
  Zero half: 34

Explored 759 nodes (648368 simplex iterations) in 3600.09 seconds
Thread count was 4 (of 4 available processors)

Solution count 4: 6 7 8 9 

Time limit reached
Best objective 6.000000000000e+00, best bound 2.000000000000e+00, gap 66.6667%
